p cnf 7 33
-4 -1 7 0
6 5 -7 0
1 3 -6 2 -5 -4 -7 0
-7 -5 2 4 -3 -6 -1 0
3 6 -7 -5 2 -1 0
-6 5 -4 0
-4 5 0
-2 7 0
-2 -1 0
-3 -1 0
-3 5 1 0
3 4 1 -2 0
3 -1 6 -5 0
-5 -7 2 0
-2 -6 0
-2 -3 6 -7 5 -4 0
-3 6 0
-6 5 -1 7 -2 3 0
7 -4 0
7 6 -3 0
-3 7 1 -5 0
-4 -7 5 -3 6 2 0
6 5 2 0
-7 -2 -3 1 -6 5 0
-3 -2 1 6 0
5 1 -3 6 -7 0
-3 5 -6 -1 0
7 -2 0
-1 7 0
4 1 -6 0
-6 -4 -5 1 3 -2 0
-5 1 0
-7 6 2 0
